data;

param n:=28;
param p:=3;
param r:=[1] 0 [2] 3 [3] 1 [4] 2 [5] 11 [6] 0 [7] 2 [8] 6 [9] 14 [10] 23 [11] 16 [12] 27 [13] 35 [14] 12 [15] 7 [16] 12 [17] 19 [18] 46 [19] 9 [20] 6 [21] 40 [22] 31 [23] 50 [24] 64 [25] 52 [26] 22 [27] 50 [28] 0 ;
param w:=[1] 95 [2] 90 [3] 32 [4] 59 [5] 37 [6] 77 [7] 16 [8] 69 [9] 90 [10] 82 [11] 41 [12] 9 [13] 11 [14] 93 [15] 67 [16] 90 [17] 14 [18] 22 [19] 47 [20] 24 [21] 70 [22] 41 [23] 77 [24] 27 [25] 12 [26] 63 [27] 39 [28] 98 ;

end;
